DIMENSION: 22
EDGE_WEIGHT_TYPE: EXPLICIT
EDGE_WEIGHT_FORMAT: FULL_MATRIX
EDGE_WEIGHT_SECTION:
32767 48 32767 50 32767 7 32767 32767 32767 32767 32767 32767 36 32767 32767 32767 96 32767 78 32767 32767 32767 
48 32767 32767 49 32767 48 46 32767 32767 32767 32767 32767 38 32767 32767 78 32767 32767 32767 32767 32767 32767 
32767 32767 32767 54 52 54 32767 54 56 32767 1 73 32767 32767 32767 32767 32767 32767 30 32767 32767 77 
50 49 54 32767 32767 32767 32767 32767 94 55 32767 32767 32767 32767 32767 32767 50 32767 74 32767 27 32767 
32767 32767 52 32767 32767 32767 32767 32767 57 32767 33 32767 32767 32 51 32767 32767 32767 4 32767 32767 32767 
7 48 54 32767 32767 32767 32767 32767 13 39 32767 32767 32767 32767 30 32767 4 32767 32767 32767 32767 32767 
32767 46 32767 32767 32767 32767 32767 32767 32767 32767 95 32767 51 32767 40 32767 32767 32767 72 32767 83 32767 
32767 32767 54 32767 32767 32767 32767 32767 32767 58 16 32767 32767 32767 50 32767 19 32767 32767 32767 100 32767 
32767 32767 56 94 57 13 32767 32767 32767 32 32767 32767 75 32767 33 32767 61 32767 32767 32767 32767 32767 
32767 32767 32767 55 32767 39 32767 58 32 32767 24 32767 32767 32767 32767 32767 93 57 60 32767 43 32767 
32767 32767 1 32767 33 32767 95 16 32767 24 32767 32767 32767 17 32767 27 44 91 32767 32767 32767 32767 
32767 32767 73 32767 32767 32767 32767 32767 32767 32767 32767 32767 67 32767 32767 32767 8 32767 16 32767 32767 32767 
36 38 32767 32767 32767 32767 51 32767 75 32767 32767 67 32767 32767 32767 32767 32767 16 32767 32767 32767 32767 
32767 32767 32767 32767 32 32767 32767 32767 32767 32767 17 32767 32767 32767 32767 32767 32767 32767 83 32767 32767 32767 
32767 32767 32767 32767 51 30 40 50 33 32767 32767 32767 32767 32767 32767 32767 32767 32767 32767 32767 32767 32767 
32767 78 32767 32767 32767 32767 32767 32767 32767 32767 27 32767 32767 32767 32767 32767 32767 32767 32767 32767 32767 32767 
96 32767 32767 50 32767 4 32767 19 61 93 44 8 32767 32767 32767 32767 32767 62 29 32767 32767 27 
32767 32767 32767 32767 32767 32767 32767 32767 32767 57 91 32767 16 32767 32767 32767 62 32767 32767 73 70 73 
78 32767 30 74 4 32767 72 32767 32767 60 32767 16 32767 83 32767 32767 29 32767 32767 32767 46 32767 
32767 32767 32767 32767 32767 32767 32767 32767 32767 32767 32767 32767 32767 32767 32767 32767 32767 73 32767 32767 32767 32767 
32767 32767 32767 27 32767 32767 83 100 32767 43 32767 32767 32767 32767 32767 32767 32767 70 46 32767 32767 32767 
32767 32767 77 32767 32767 32767 32767 32767 32767 32767 32767 32767 32767 32767 32767 32767 27 73 32767 32767 32767 32767 
EOF